(set-logic BV) (define-fun origCir ((n238 Bool) (n325 Bool) (n254 Bool) (n207 Bool) (i53 Bool)) Bool (xor (and (xor n325 (not (and n254 n207))) n238) i53)) (synth-fun skel ((n238 Bool) (n325 Bool) (n254 Bool) (n207 Bool) (i53 Bool)) Bool) (declare-var n238 Bool) (declare-var n325 Bool) (declare-var n254 Bool) (declare-var n207 Bool) (declare-var i53 Bool) (constraint (= (origCir n238 n325 n254 n207 i53) (skel n238 n325 n254 n207 i53))) (check-synth)
